
;this file is automatically generated: Mon Oct 04 22:33:08 IST 2021

;declarations generated

(declare-fun oclExcludes ( Int Int) Bool)
(declare-fun Cardinality ( Int) Int)
(declare-fun type_01b4b9a2_d50e_452e_92d7_d70cc252904c_Class26 ( Int) Bool)
(declare-fun type_01b4b9a2_d50e_452e_92d7_d70cc252904c_Class3 ( Int) Bool)
(declare-fun type_01b4b9a2_d50e_452e_92d7_d70cc252904c_Class25 ( Int) Bool)
(declare-fun type_01b4b9a2_d50e_452e_92d7_d70cc252904c_Class4 ( Int) Bool)
(declare-fun type_01b4b9a2_d50e_452e_92d7_d70cc252904c_Class24 ( Int) Bool)
(declare-fun type_01b4b9a2_d50e_452e_92d7_d70cc252904c_Class5 ( Int) Bool)
(declare-fun type_01b4b9a2_d50e_452e_92d7_d70cc252904c_Class23 ( Int) Bool)
(declare-fun type_01b4b9a2_d50e_452e_92d7_d70cc252904c_Class6 ( Int) Bool)
(declare-fun type_01b4b9a2_d50e_452e_92d7_d70cc252904c_Class22 ( Int) Bool)
(declare-fun type_01b4b9a2_d50e_452e_92d7_d70cc252904c_Class7 ( Int) Bool)
(declare-fun type_01b4b9a2_d50e_452e_92d7_d70cc252904c_Class21 ( Int) Bool)
(declare-fun type_01b4b9a2_d50e_452e_92d7_d70cc252904c_Class8 ( Int) Bool)
(declare-fun type_01b4b9a2_d50e_452e_92d7_d70cc252904c_Class20 ( Int) Bool)
(declare-fun type_01b4b9a2_d50e_452e_92d7_d70cc252904c_Class9 ( Int) Bool)
(declare-fun type_01b4b9a2_d50e_452e_92d7_d70cc252904c_Class29 ( Int) Bool)
(declare-fun type_01b4b9a2_d50e_452e_92d7_d70cc252904c_Class28 ( Int) Bool)
(declare-fun type_01b4b9a2_d50e_452e_92d7_d70cc252904c_Class27 ( Int) Bool)
(declare-fun type_01b4b9a2_d50e_452e_92d7_d70cc252904c_Class15 ( Int) Bool)
(declare-fun type_01b4b9a2_d50e_452e_92d7_d70cc252904c_Class14 ( Int) Bool)
(declare-fun type_01b4b9a2_d50e_452e_92d7_d70cc252904c_Class13 ( Int) Bool)
(declare-fun type_01b4b9a2_d50e_452e_92d7_d70cc252904c_Class12 ( Int) Bool)
(declare-fun type_01b4b9a2_d50e_452e_92d7_d70cc252904c_Class11 ( Int) Bool)
(declare-fun type_01b4b9a2_d50e_452e_92d7_d70cc252904c_Class10 ( Int) Bool)
(declare-fun type_01b4b9a2_d50e_452e_92d7_d70cc252904c_Class19 ( Int) Bool)
(declare-fun type_01b4b9a2_d50e_452e_92d7_d70cc252904c_Class18 ( Int) Bool)
(declare-fun type_01b4b9a2_d50e_452e_92d7_d70cc252904c_Class17 ( Int) Bool)
(declare-fun type_01b4b9a2_d50e_452e_92d7_d70cc252904c_Class16 ( Int) Bool)
(declare-fun type_01b4b9a2_d50e_452e_92d7_d70cc252904c_Class0 ( Int) Bool)
(declare-fun type_01b4b9a2_d50e_452e_92d7_d70cc252904c_Class1 ( Int) Bool)
(declare-fun type_01b4b9a2_d50e_452e_92d7_d70cc252904c_Class2 ( Int) Bool)
(declare-fun oclSelect ( Int Bool) Int)
(declare-fun obj_3f55ef60_0c95_4393_8db0_798bb79af74a ( Int) Int)
(declare-fun Enum0 ( Int) Int)
(declare-fun Enum1 ( Int) Int)
(declare-fun Enum2 ( Int) Int)
(declare-fun container_ ( Int) Int)
(declare-fun type_01b4b9a2_d50e_452e_92d7_d70cc252904c_Class55 ( Int) Bool)
(declare-fun type_01b4b9a2_d50e_452e_92d7_d70cc252904c_Class54 ( Int) Bool)
(declare-fun type_01b4b9a2_d50e_452e_92d7_d70cc252904c_Class53 ( Int) Bool)
(declare-fun type_01b4b9a2_d50e_452e_92d7_d70cc252904c_Class52 ( Int) Bool)
(declare-fun oclIncludes ( Int Int) Bool)
(declare-fun type_01b4b9a2_d50e_452e_92d7_d70cc252904c_Class51 ( Int) Bool)
(declare-fun type_01b4b9a2_d50e_452e_92d7_d70cc252904c_Class50 ( Int) Bool)
(declare-fun type_01b4b9a2_d50e_452e_92d7_d70cc252904c_Class48 ( Int) Bool)
(declare-fun type_01b4b9a2_d50e_452e_92d7_d70cc252904c_Class47 ( Int) Bool)
(declare-fun type_01b4b9a2_d50e_452e_92d7_d70cc252904c_Class46 ( Int) Bool)
(declare-fun type_01b4b9a2_d50e_452e_92d7_d70cc252904c_Class45 ( Int) Bool)
(declare-fun type_01b4b9a2_d50e_452e_92d7_d70cc252904c_Class44 ( Int) Bool)
(declare-fun type_01b4b9a2_d50e_452e_92d7_d70cc252904c_Class43 ( Int) Bool)
(declare-fun type_01b4b9a2_d50e_452e_92d7_d70cc252904c_Class42 ( Int) Bool)
(declare-fun type_01b4b9a2_d50e_452e_92d7_d70cc252904c_Class41 ( Int) Bool)
(declare-fun type_01b4b9a2_d50e_452e_92d7_d70cc252904c_Class49 ( Int) Bool)
(declare-fun type_01b4b9a2_d50e_452e_92d7_d70cc252904c_Class40 ( Int) Bool)
(declare-fun type_01b4b9a2_d50e_452e_92d7_d70cc252904c_Class37 ( Int) Bool)
(declare-fun type_01b4b9a2_d50e_452e_92d7_d70cc252904c_Class36 ( Int) Bool)
(declare-fun type_01b4b9a2_d50e_452e_92d7_d70cc252904c_Class35 ( Int) Bool)
(declare-fun type_01b4b9a2_d50e_452e_92d7_d70cc252904c_Class34 ( Int) Bool)
(declare-fun type_01b4b9a2_d50e_452e_92d7_d70cc252904c_Class33 ( Int) Bool)
(declare-fun type_01b4b9a2_d50e_452e_92d7_d70cc252904c_Class32 ( Int) Bool)
(declare-fun type_01b4b9a2_d50e_452e_92d7_d70cc252904c_Class31 ( Int) Bool)
(declare-fun type_01b4b9a2_d50e_452e_92d7_d70cc252904c_Class30 ( Int) Bool)
(declare-fun ObjAt ( Int Int) Int)
(declare-fun type_01b4b9a2_d50e_452e_92d7_d70cc252904c_Class39 ( Int) Bool)
(declare-fun type_01b4b9a2_d50e_452e_92d7_d70cc252904c_Class38 ( Int) Bool)
(declare-fun class2_Class2BoolAttr1 ( Int) Bool)
(declare-fun class2_Class2BoolAttr2 ( Int) Bool)

;formula(s) generated
(assert (! (or (forall ((v Int)) (=> ( type_01b4b9a2_d50e_452e_92d7_d70cc252904c_Class2 v )  ( class2_Class2BoolAttr1 ( obj_3f55ef60_0c95_4393_8db0_798bb79af74a v )  ) )) (forall ((v Int)) (=> ( type_01b4b9a2_d50e_452e_92d7_d70cc252904c_Class2 v )  ( class2_Class2BoolAttr2 ( obj_3f55ef60_0c95_4393_8db0_798bb79af74a v )  ) ))):named l0))
(assert (! (exists ((o Int)) ( type_01b4b9a2_d50e_452e_92d7_d70cc252904c_Class0 ( obj_3f55ef60_0c95_4393_8db0_798bb79af74a o )  ) ):named c0))
(assert (! (exists ((o Int)) (and (and (and (and (and ( type_01b4b9a2_d50e_452e_92d7_d70cc252904c_Class1 ( obj_3f55ef60_0c95_4393_8db0_798bb79af74a o )  )  ( type_01b4b9a2_d50e_452e_92d7_d70cc252904c_Class45 ( obj_3f55ef60_0c95_4393_8db0_798bb79af74a o )  ) ) ( type_01b4b9a2_d50e_452e_92d7_d70cc252904c_Class12 ( obj_3f55ef60_0c95_4393_8db0_798bb79af74a o )  ) ) ( type_01b4b9a2_d50e_452e_92d7_d70cc252904c_Class33 ( obj_3f55ef60_0c95_4393_8db0_798bb79af74a o )  ) ) ( type_01b4b9a2_d50e_452e_92d7_d70cc252904c_Class22 ( obj_3f55ef60_0c95_4393_8db0_798bb79af74a o )  ) ) ( type_01b4b9a2_d50e_452e_92d7_d70cc252904c_Class39 ( obj_3f55ef60_0c95_4393_8db0_798bb79af74a o )  ) )):named c1))
(assert (! (exists ((o Int)) (and (and (and (and (and (and (and (and (and ( type_01b4b9a2_d50e_452e_92d7_d70cc252904c_Class10 ( obj_3f55ef60_0c95_4393_8db0_798bb79af74a o )  )  ( type_01b4b9a2_d50e_452e_92d7_d70cc252904c_Class45 ( obj_3f55ef60_0c95_4393_8db0_798bb79af74a o )  ) ) ( type_01b4b9a2_d50e_452e_92d7_d70cc252904c_Class12 ( obj_3f55ef60_0c95_4393_8db0_798bb79af74a o )  ) ) ( type_01b4b9a2_d50e_452e_92d7_d70cc252904c_Class55 ( obj_3f55ef60_0c95_4393_8db0_798bb79af74a o )  ) ) ( type_01b4b9a2_d50e_452e_92d7_d70cc252904c_Class33 ( obj_3f55ef60_0c95_4393_8db0_798bb79af74a o )  ) ) ( type_01b4b9a2_d50e_452e_92d7_d70cc252904c_Class22 ( obj_3f55ef60_0c95_4393_8db0_798bb79af74a o )  ) ) ( type_01b4b9a2_d50e_452e_92d7_d70cc252904c_Class29 ( obj_3f55ef60_0c95_4393_8db0_798bb79af74a o )  ) ) ( type_01b4b9a2_d50e_452e_92d7_d70cc252904c_Class39 ( obj_3f55ef60_0c95_4393_8db0_798bb79af74a o )  ) ) ( type_01b4b9a2_d50e_452e_92d7_d70cc252904c_Class50 ( obj_3f55ef60_0c95_4393_8db0_798bb79af74a o )  ) ) ( type_01b4b9a2_d50e_452e_92d7_d70cc252904c_Class41 ( obj_3f55ef60_0c95_4393_8db0_798bb79af74a o )  ) )):named c2))
(assert (! (exists ((o Int)) ( type_01b4b9a2_d50e_452e_92d7_d70cc252904c_Class11 ( obj_3f55ef60_0c95_4393_8db0_798bb79af74a o )  ) ):named c3))
(assert (! (exists ((o Int)) (and (and (and ( type_01b4b9a2_d50e_452e_92d7_d70cc252904c_Class12 ( obj_3f55ef60_0c95_4393_8db0_798bb79af74a o )  )  ( type_01b4b9a2_d50e_452e_92d7_d70cc252904c_Class33 ( obj_3f55ef60_0c95_4393_8db0_798bb79af74a o )  ) ) ( type_01b4b9a2_d50e_452e_92d7_d70cc252904c_Class22 ( obj_3f55ef60_0c95_4393_8db0_798bb79af74a o )  ) ) ( type_01b4b9a2_d50e_452e_92d7_d70cc252904c_Class39 ( obj_3f55ef60_0c95_4393_8db0_798bb79af74a o )  ) )):named c4))
(assert (! (exists ((o Int)) (and (and (and (and (and (and (and (and (and ( type_01b4b9a2_d50e_452e_92d7_d70cc252904c_Class13 ( obj_3f55ef60_0c95_4393_8db0_798bb79af74a o )  )  ( type_01b4b9a2_d50e_452e_92d7_d70cc252904c_Class45 ( obj_3f55ef60_0c95_4393_8db0_798bb79af74a o )  ) ) ( type_01b4b9a2_d50e_452e_92d7_d70cc252904c_Class12 ( obj_3f55ef60_0c95_4393_8db0_798bb79af74a o )  ) ) ( type_01b4b9a2_d50e_452e_92d7_d70cc252904c_Class55 ( obj_3f55ef60_0c95_4393_8db0_798bb79af74a o )  ) ) ( type_01b4b9a2_d50e_452e_92d7_d70cc252904c_Class33 ( obj_3f55ef60_0c95_4393_8db0_798bb79af74a o )  ) ) ( type_01b4b9a2_d50e_452e_92d7_d70cc252904c_Class22 ( obj_3f55ef60_0c95_4393_8db0_798bb79af74a o )  ) ) ( type_01b4b9a2_d50e_452e_92d7_d70cc252904c_Class29 ( obj_3f55ef60_0c95_4393_8db0_798bb79af74a o )  ) ) ( type_01b4b9a2_d50e_452e_92d7_d70cc252904c_Class39 ( obj_3f55ef60_0c95_4393_8db0_798bb79af74a o )  ) ) ( type_01b4b9a2_d50e_452e_92d7_d70cc252904c_Class50 ( obj_3f55ef60_0c95_4393_8db0_798bb79af74a o )  ) ) ( type_01b4b9a2_d50e_452e_92d7_d70cc252904c_Class41 ( obj_3f55ef60_0c95_4393_8db0_798bb79af74a o )  ) )):named c5))
(assert (! (exists ((o Int)) (and (and (and (and (and (and (and (and (and ( type_01b4b9a2_d50e_452e_92d7_d70cc252904c_Class14 ( obj_3f55ef60_0c95_4393_8db0_798bb79af74a o )  )  ( type_01b4b9a2_d50e_452e_92d7_d70cc252904c_Class45 ( obj_3f55ef60_0c95_4393_8db0_798bb79af74a o )  ) ) ( type_01b4b9a2_d50e_452e_92d7_d70cc252904c_Class12 ( obj_3f55ef60_0c95_4393_8db0_798bb79af74a o )  ) ) ( type_01b4b9a2_d50e_452e_92d7_d70cc252904c_Class55 ( obj_3f55ef60_0c95_4393_8db0_798bb79af74a o )  ) ) ( type_01b4b9a2_d50e_452e_92d7_d70cc252904c_Class33 ( obj_3f55ef60_0c95_4393_8db0_798bb79af74a o )  ) ) ( type_01b4b9a2_d50e_452e_92d7_d70cc252904c_Class22 ( obj_3f55ef60_0c95_4393_8db0_798bb79af74a o )  ) ) ( type_01b4b9a2_d50e_452e_92d7_d70cc252904c_Class29 ( obj_3f55ef60_0c95_4393_8db0_798bb79af74a o )  ) ) ( type_01b4b9a2_d50e_452e_92d7_d70cc252904c_Class39 ( obj_3f55ef60_0c95_4393_8db0_798bb79af74a o )  ) ) ( type_01b4b9a2_d50e_452e_92d7_d70cc252904c_Class50 ( obj_3f55ef60_0c95_4393_8db0_798bb79af74a o )  ) ) ( type_01b4b9a2_d50e_452e_92d7_d70cc252904c_Class41 ( obj_3f55ef60_0c95_4393_8db0_798bb79af74a o )  ) )):named c6))
(assert (! (exists ((o Int)) ( type_01b4b9a2_d50e_452e_92d7_d70cc252904c_Class15 ( obj_3f55ef60_0c95_4393_8db0_798bb79af74a o )  ) ):named c7))
(assert (! (exists ((o Int)) (and (and (and (and (and ( type_01b4b9a2_d50e_452e_92d7_d70cc252904c_Class16 ( obj_3f55ef60_0c95_4393_8db0_798bb79af74a o )  )  ( type_01b4b9a2_d50e_452e_92d7_d70cc252904c_Class45 ( obj_3f55ef60_0c95_4393_8db0_798bb79af74a o )  ) ) ( type_01b4b9a2_d50e_452e_92d7_d70cc252904c_Class12 ( obj_3f55ef60_0c95_4393_8db0_798bb79af74a o )  ) ) ( type_01b4b9a2_d50e_452e_92d7_d70cc252904c_Class33 ( obj_3f55ef60_0c95_4393_8db0_798bb79af74a o )  ) ) ( type_01b4b9a2_d50e_452e_92d7_d70cc252904c_Class22 ( obj_3f55ef60_0c95_4393_8db0_798bb79af74a o )  ) ) ( type_01b4b9a2_d50e_452e_92d7_d70cc252904c_Class39 ( obj_3f55ef60_0c95_4393_8db0_798bb79af74a o )  ) )):named c8))
(assert (! (exists ((o Int)) ( type_01b4b9a2_d50e_452e_92d7_d70cc252904c_Class17 ( obj_3f55ef60_0c95_4393_8db0_798bb79af74a o )  ) ):named c9))
(assert (! (exists ((o Int)) (and (and (and ( type_01b4b9a2_d50e_452e_92d7_d70cc252904c_Class18 ( obj_3f55ef60_0c95_4393_8db0_798bb79af74a o )  )  ( type_01b4b9a2_d50e_452e_92d7_d70cc252904c_Class25 ( obj_3f55ef60_0c95_4393_8db0_798bb79af74a o )  ) ) ( type_01b4b9a2_d50e_452e_92d7_d70cc252904c_Class24 ( obj_3f55ef60_0c95_4393_8db0_798bb79af74a o )  ) ) ( type_01b4b9a2_d50e_452e_92d7_d70cc252904c_Class39 ( obj_3f55ef60_0c95_4393_8db0_798bb79af74a o )  ) )):named c10))
(assert (! (exists ((o Int)) (and (and (and (and (and (and (and (and (and ( type_01b4b9a2_d50e_452e_92d7_d70cc252904c_Class19 ( obj_3f55ef60_0c95_4393_8db0_798bb79af74a o )  )  ( type_01b4b9a2_d50e_452e_92d7_d70cc252904c_Class45 ( obj_3f55ef60_0c95_4393_8db0_798bb79af74a o )  ) ) ( type_01b4b9a2_d50e_452e_92d7_d70cc252904c_Class12 ( obj_3f55ef60_0c95_4393_8db0_798bb79af74a o )  ) ) ( type_01b4b9a2_d50e_452e_92d7_d70cc252904c_Class55 ( obj_3f55ef60_0c95_4393_8db0_798bb79af74a o )  ) ) ( type_01b4b9a2_d50e_452e_92d7_d70cc252904c_Class33 ( obj_3f55ef60_0c95_4393_8db0_798bb79af74a o )  ) ) ( type_01b4b9a2_d50e_452e_92d7_d70cc252904c_Class22 ( obj_3f55ef60_0c95_4393_8db0_798bb79af74a o )  ) ) ( type_01b4b9a2_d50e_452e_92d7_d70cc252904c_Class29 ( obj_3f55ef60_0c95_4393_8db0_798bb79af74a o )  ) ) ( type_01b4b9a2_d50e_452e_92d7_d70cc252904c_Class39 ( obj_3f55ef60_0c95_4393_8db0_798bb79af74a o )  ) ) ( type_01b4b9a2_d50e_452e_92d7_d70cc252904c_Class50 ( obj_3f55ef60_0c95_4393_8db0_798bb79af74a o )  ) ) ( type_01b4b9a2_d50e_452e_92d7_d70cc252904c_Class41 ( obj_3f55ef60_0c95_4393_8db0_798bb79af74a o )  ) )):named c11))
(assert (! (exists ((o Int)) ( type_01b4b9a2_d50e_452e_92d7_d70cc252904c_Class2 ( obj_3f55ef60_0c95_4393_8db0_798bb79af74a o )  ) ):named c12))
(assert (! (exists ((o Int)) ( type_01b4b9a2_d50e_452e_92d7_d70cc252904c_Class20 ( obj_3f55ef60_0c95_4393_8db0_798bb79af74a o )  ) ):named c13))
(assert (! (exists ((o Int)) (and (and (and (and (and (and (and (and (and ( type_01b4b9a2_d50e_452e_92d7_d70cc252904c_Class21 ( obj_3f55ef60_0c95_4393_8db0_798bb79af74a o )  )  ( type_01b4b9a2_d50e_452e_92d7_d70cc252904c_Class45 ( obj_3f55ef60_0c95_4393_8db0_798bb79af74a o )  ) ) ( type_01b4b9a2_d50e_452e_92d7_d70cc252904c_Class12 ( obj_3f55ef60_0c95_4393_8db0_798bb79af74a o )  ) ) ( type_01b4b9a2_d50e_452e_92d7_d70cc252904c_Class33 ( obj_3f55ef60_0c95_4393_8db0_798bb79af74a o )  ) ) ( type_01b4b9a2_d50e_452e_92d7_d70cc252904c_Class22 ( obj_3f55ef60_0c95_4393_8db0_798bb79af74a o )  ) ) ( type_01b4b9a2_d50e_452e_92d7_d70cc252904c_Class16 ( obj_3f55ef60_0c95_4393_8db0_798bb79af74a o )  ) ) ( type_01b4b9a2_d50e_452e_92d7_d70cc252904c_Class29 ( obj_3f55ef60_0c95_4393_8db0_798bb79af74a o )  ) ) ( type_01b4b9a2_d50e_452e_92d7_d70cc252904c_Class39 ( obj_3f55ef60_0c95_4393_8db0_798bb79af74a o )  ) ) ( type_01b4b9a2_d50e_452e_92d7_d70cc252904c_Class41 ( obj_3f55ef60_0c95_4393_8db0_798bb79af74a o )  ) ) ( type_01b4b9a2_d50e_452e_92d7_d70cc252904c_Class51 ( obj_3f55ef60_0c95_4393_8db0_798bb79af74a o )  ) )):named c14))
(assert (! (exists ((o Int)) (and ( type_01b4b9a2_d50e_452e_92d7_d70cc252904c_Class22 ( obj_3f55ef60_0c95_4393_8db0_798bb79af74a o )  )  ( type_01b4b9a2_d50e_452e_92d7_d70cc252904c_Class39 ( obj_3f55ef60_0c95_4393_8db0_798bb79af74a o )  ) )):named c15))
(assert (! (exists ((o Int)) (and (and (and (and ( type_01b4b9a2_d50e_452e_92d7_d70cc252904c_Class23 ( obj_3f55ef60_0c95_4393_8db0_798bb79af74a o )  )  ( type_01b4b9a2_d50e_452e_92d7_d70cc252904c_Class25 ( obj_3f55ef60_0c95_4393_8db0_798bb79af74a o )  ) ) ( type_01b4b9a2_d50e_452e_92d7_d70cc252904c_Class24 ( obj_3f55ef60_0c95_4393_8db0_798bb79af74a o )  ) ) ( type_01b4b9a2_d50e_452e_92d7_d70cc252904c_Class39 ( obj_3f55ef60_0c95_4393_8db0_798bb79af74a o )  ) ) ( type_01b4b9a2_d50e_452e_92d7_d70cc252904c_Class5 ( obj_3f55ef60_0c95_4393_8db0_798bb79af74a o )  ) )):named c16))
(assert (! (exists ((o Int)) (and (and ( type_01b4b9a2_d50e_452e_92d7_d70cc252904c_Class24 ( obj_3f55ef60_0c95_4393_8db0_798bb79af74a o )  )  ( type_01b4b9a2_d50e_452e_92d7_d70cc252904c_Class25 ( obj_3f55ef60_0c95_4393_8db0_798bb79af74a o )  ) ) ( type_01b4b9a2_d50e_452e_92d7_d70cc252904c_Class39 ( obj_3f55ef60_0c95_4393_8db0_798bb79af74a o )  ) )):named c17))
(assert (! (exists ((o Int)) (and ( type_01b4b9a2_d50e_452e_92d7_d70cc252904c_Class25 ( obj_3f55ef60_0c95_4393_8db0_798bb79af74a o )  )  ( type_01b4b9a2_d50e_452e_92d7_d70cc252904c_Class39 ( obj_3f55ef60_0c95_4393_8db0_798bb79af74a o )  ) )):named c18))
(assert (! (exists ((o Int)) ( type_01b4b9a2_d50e_452e_92d7_d70cc252904c_Class26 ( obj_3f55ef60_0c95_4393_8db0_798bb79af74a o )  ) ):named c19))
(assert (! (exists ((o Int)) ( type_01b4b9a2_d50e_452e_92d7_d70cc252904c_Class27 ( obj_3f55ef60_0c95_4393_8db0_798bb79af74a o )  ) ):named c20))
(assert (! (exists ((o Int)) (and (and (and (and (and (and (and ( type_01b4b9a2_d50e_452e_92d7_d70cc252904c_Class28 ( obj_3f55ef60_0c95_4393_8db0_798bb79af74a o )  )  ( type_01b4b9a2_d50e_452e_92d7_d70cc252904c_Class45 ( obj_3f55ef60_0c95_4393_8db0_798bb79af74a o )  ) ) ( type_01b4b9a2_d50e_452e_92d7_d70cc252904c_Class12 ( obj_3f55ef60_0c95_4393_8db0_798bb79af74a o )  ) ) ( type_01b4b9a2_d50e_452e_92d7_d70cc252904c_Class33 ( obj_3f55ef60_0c95_4393_8db0_798bb79af74a o )  ) ) ( type_01b4b9a2_d50e_452e_92d7_d70cc252904c_Class22 ( obj_3f55ef60_0c95_4393_8db0_798bb79af74a o )  ) ) ( type_01b4b9a2_d50e_452e_92d7_d70cc252904c_Class29 ( obj_3f55ef60_0c95_4393_8db0_798bb79af74a o )  ) ) ( type_01b4b9a2_d50e_452e_92d7_d70cc252904c_Class39 ( obj_3f55ef60_0c95_4393_8db0_798bb79af74a o )  ) ) ( type_01b4b9a2_d50e_452e_92d7_d70cc252904c_Class41 ( obj_3f55ef60_0c95_4393_8db0_798bb79af74a o )  ) )):named c21))
(assert (! (exists ((o Int)) (and (and (and (and (and (and ( type_01b4b9a2_d50e_452e_92d7_d70cc252904c_Class29 ( obj_3f55ef60_0c95_4393_8db0_798bb79af74a o )  )  ( type_01b4b9a2_d50e_452e_92d7_d70cc252904c_Class45 ( obj_3f55ef60_0c95_4393_8db0_798bb79af74a o )  ) ) ( type_01b4b9a2_d50e_452e_92d7_d70cc252904c_Class12 ( obj_3f55ef60_0c95_4393_8db0_798bb79af74a o )  ) ) ( type_01b4b9a2_d50e_452e_92d7_d70cc252904c_Class33 ( obj_3f55ef60_0c95_4393_8db0_798bb79af74a o )  ) ) ( type_01b4b9a2_d50e_452e_92d7_d70cc252904c_Class22 ( obj_3f55ef60_0c95_4393_8db0_798bb79af74a o )  ) ) ( type_01b4b9a2_d50e_452e_92d7_d70cc252904c_Class39 ( obj_3f55ef60_0c95_4393_8db0_798bb79af74a o )  ) ) ( type_01b4b9a2_d50e_452e_92d7_d70cc252904c_Class41 ( obj_3f55ef60_0c95_4393_8db0_798bb79af74a o )  ) )):named c22))
(assert (! (exists ((o Int)) (and (and (and ( type_01b4b9a2_d50e_452e_92d7_d70cc252904c_Class3 ( obj_3f55ef60_0c95_4393_8db0_798bb79af74a o )  )  ( type_01b4b9a2_d50e_452e_92d7_d70cc252904c_Class25 ( obj_3f55ef60_0c95_4393_8db0_798bb79af74a o )  ) ) ( type_01b4b9a2_d50e_452e_92d7_d70cc252904c_Class24 ( obj_3f55ef60_0c95_4393_8db0_798bb79af74a o )  ) ) ( type_01b4b9a2_d50e_452e_92d7_d70cc252904c_Class39 ( obj_3f55ef60_0c95_4393_8db0_798bb79af74a o )  ) )):named c23))
(assert (! (exists ((o Int)) (and ( type_01b4b9a2_d50e_452e_92d7_d70cc252904c_Class30 ( obj_3f55ef60_0c95_4393_8db0_798bb79af74a o )  )  ( type_01b4b9a2_d50e_452e_92d7_d70cc252904c_Class39 ( obj_3f55ef60_0c95_4393_8db0_798bb79af74a o )  ) )):named c24))
(assert (! (exists ((o Int)) (and (and (and (and (and ( type_01b4b9a2_d50e_452e_92d7_d70cc252904c_Class31 ( obj_3f55ef60_0c95_4393_8db0_798bb79af74a o )  )  ( type_01b4b9a2_d50e_452e_92d7_d70cc252904c_Class45 ( obj_3f55ef60_0c95_4393_8db0_798bb79af74a o )  ) ) ( type_01b4b9a2_d50e_452e_92d7_d70cc252904c_Class12 ( obj_3f55ef60_0c95_4393_8db0_798bb79af74a o )  ) ) ( type_01b4b9a2_d50e_452e_92d7_d70cc252904c_Class33 ( obj_3f55ef60_0c95_4393_8db0_798bb79af74a o )  ) ) ( type_01b4b9a2_d50e_452e_92d7_d70cc252904c_Class22 ( obj_3f55ef60_0c95_4393_8db0_798bb79af74a o )  ) ) ( type_01b4b9a2_d50e_452e_92d7_d70cc252904c_Class39 ( obj_3f55ef60_0c95_4393_8db0_798bb79af74a o )  ) )):named c25))
(assert (! (exists ((o Int)) ( type_01b4b9a2_d50e_452e_92d7_d70cc252904c_Class32 ( obj_3f55ef60_0c95_4393_8db0_798bb79af74a o )  ) ):named c26))
(assert (! (exists ((o Int)) (and (and ( type_01b4b9a2_d50e_452e_92d7_d70cc252904c_Class33 ( obj_3f55ef60_0c95_4393_8db0_798bb79af74a o )  )  ( type_01b4b9a2_d50e_452e_92d7_d70cc252904c_Class22 ( obj_3f55ef60_0c95_4393_8db0_798bb79af74a o )  ) ) ( type_01b4b9a2_d50e_452e_92d7_d70cc252904c_Class39 ( obj_3f55ef60_0c95_4393_8db0_798bb79af74a o )  ) )):named c27))
(assert (! (exists ((o Int)) (and (and (and ( type_01b4b9a2_d50e_452e_92d7_d70cc252904c_Class34 ( obj_3f55ef60_0c95_4393_8db0_798bb79af74a o )  )  ( type_01b4b9a2_d50e_452e_92d7_d70cc252904c_Class25 ( obj_3f55ef60_0c95_4393_8db0_798bb79af74a o )  ) ) ( type_01b4b9a2_d50e_452e_92d7_d70cc252904c_Class24 ( obj_3f55ef60_0c95_4393_8db0_798bb79af74a o )  ) ) ( type_01b4b9a2_d50e_452e_92d7_d70cc252904c_Class39 ( obj_3f55ef60_0c95_4393_8db0_798bb79af74a o )  ) )):named c28))
(assert (! (exists ((o Int)) (and (and ( type_01b4b9a2_d50e_452e_92d7_d70cc252904c_Class35 ( obj_3f55ef60_0c95_4393_8db0_798bb79af74a o )  )  ( type_01b4b9a2_d50e_452e_92d7_d70cc252904c_Class39 ( obj_3f55ef60_0c95_4393_8db0_798bb79af74a o )  ) ) ( type_01b4b9a2_d50e_452e_92d7_d70cc252904c_Class30 ( obj_3f55ef60_0c95_4393_8db0_798bb79af74a o )  ) )):named c29))
(assert (! (exists ((o Int)) ( type_01b4b9a2_d50e_452e_92d7_d70cc252904c_Class36 ( obj_3f55ef60_0c95_4393_8db0_798bb79af74a o )  ) ):named c30))
(assert (! (exists ((o Int)) ( type_01b4b9a2_d50e_452e_92d7_d70cc252904c_Class37 ( obj_3f55ef60_0c95_4393_8db0_798bb79af74a o )  ) ):named c31))
(assert (! (exists ((o Int)) ( type_01b4b9a2_d50e_452e_92d7_d70cc252904c_Class38 ( obj_3f55ef60_0c95_4393_8db0_798bb79af74a o )  ) ):named c32))
(assert (! (exists ((o Int)) ( type_01b4b9a2_d50e_452e_92d7_d70cc252904c_Class39 ( obj_3f55ef60_0c95_4393_8db0_798bb79af74a o )  ) ):named c33))
(assert (! (exists ((o Int)) ( type_01b4b9a2_d50e_452e_92d7_d70cc252904c_Class4 ( obj_3f55ef60_0c95_4393_8db0_798bb79af74a o )  ) ):named c34))
(assert (! (exists ((o Int)) (and (and (and (and (and (and (and (and (and ( type_01b4b9a2_d50e_452e_92d7_d70cc252904c_Class40 ( obj_3f55ef60_0c95_4393_8db0_798bb79af74a o )  )  ( type_01b4b9a2_d50e_452e_92d7_d70cc252904c_Class45 ( obj_3f55ef60_0c95_4393_8db0_798bb79af74a o )  ) ) ( type_01b4b9a2_d50e_452e_92d7_d70cc252904c_Class12 ( obj_3f55ef60_0c95_4393_8db0_798bb79af74a o )  ) ) ( type_01b4b9a2_d50e_452e_92d7_d70cc252904c_Class55 ( obj_3f55ef60_0c95_4393_8db0_798bb79af74a o )  ) ) ( type_01b4b9a2_d50e_452e_92d7_d70cc252904c_Class33 ( obj_3f55ef60_0c95_4393_8db0_798bb79af74a o )  ) ) ( type_01b4b9a2_d50e_452e_92d7_d70cc252904c_Class22 ( obj_3f55ef60_0c95_4393_8db0_798bb79af74a o )  ) ) ( type_01b4b9a2_d50e_452e_92d7_d70cc252904c_Class29 ( obj_3f55ef60_0c95_4393_8db0_798bb79af74a o )  ) ) ( type_01b4b9a2_d50e_452e_92d7_d70cc252904c_Class39 ( obj_3f55ef60_0c95_4393_8db0_798bb79af74a o )  ) ) ( type_01b4b9a2_d50e_452e_92d7_d70cc252904c_Class50 ( obj_3f55ef60_0c95_4393_8db0_798bb79af74a o )  ) ) ( type_01b4b9a2_d50e_452e_92d7_d70cc252904c_Class41 ( obj_3f55ef60_0c95_4393_8db0_798bb79af74a o )  ) )):named c35))
(assert (! (exists ((o Int)) (and (and (and (and (and ( type_01b4b9a2_d50e_452e_92d7_d70cc252904c_Class41 ( obj_3f55ef60_0c95_4393_8db0_798bb79af74a o )  )  ( type_01b4b9a2_d50e_452e_92d7_d70cc252904c_Class45 ( obj_3f55ef60_0c95_4393_8db0_798bb79af74a o )  ) ) ( type_01b4b9a2_d50e_452e_92d7_d70cc252904c_Class12 ( obj_3f55ef60_0c95_4393_8db0_798bb79af74a o )  ) ) ( type_01b4b9a2_d50e_452e_92d7_d70cc252904c_Class33 ( obj_3f55ef60_0c95_4393_8db0_798bb79af74a o )  ) ) ( type_01b4b9a2_d50e_452e_92d7_d70cc252904c_Class22 ( obj_3f55ef60_0c95_4393_8db0_798bb79af74a o )  ) ) ( type_01b4b9a2_d50e_452e_92d7_d70cc252904c_Class39 ( obj_3f55ef60_0c95_4393_8db0_798bb79af74a o )  ) )):named c36))
(assert (! (exists ((o Int)) (and ( type_01b4b9a2_d50e_452e_92d7_d70cc252904c_Class42 ( obj_3f55ef60_0c95_4393_8db0_798bb79af74a o )  )  ( type_01b4b9a2_d50e_452e_92d7_d70cc252904c_Class39 ( obj_3f55ef60_0c95_4393_8db0_798bb79af74a o )  ) )):named c37))
(assert (! (exists ((o Int)) ( type_01b4b9a2_d50e_452e_92d7_d70cc252904c_Class43 ( obj_3f55ef60_0c95_4393_8db0_798bb79af74a o )  ) ):named c38))
(assert (! (exists ((o Int)) (and (and (and (and (and (and (and ( type_01b4b9a2_d50e_452e_92d7_d70cc252904c_Class44 ( obj_3f55ef60_0c95_4393_8db0_798bb79af74a o )  )  ( type_01b4b9a2_d50e_452e_92d7_d70cc252904c_Class45 ( obj_3f55ef60_0c95_4393_8db0_798bb79af74a o )  ) ) ( type_01b4b9a2_d50e_452e_92d7_d70cc252904c_Class12 ( obj_3f55ef60_0c95_4393_8db0_798bb79af74a o )  ) ) ( type_01b4b9a2_d50e_452e_92d7_d70cc252904c_Class33 ( obj_3f55ef60_0c95_4393_8db0_798bb79af74a o )  ) ) ( type_01b4b9a2_d50e_452e_92d7_d70cc252904c_Class22 ( obj_3f55ef60_0c95_4393_8db0_798bb79af74a o )  ) ) ( type_01b4b9a2_d50e_452e_92d7_d70cc252904c_Class29 ( obj_3f55ef60_0c95_4393_8db0_798bb79af74a o )  ) ) ( type_01b4b9a2_d50e_452e_92d7_d70cc252904c_Class39 ( obj_3f55ef60_0c95_4393_8db0_798bb79af74a o )  ) ) ( type_01b4b9a2_d50e_452e_92d7_d70cc252904c_Class41 ( obj_3f55ef60_0c95_4393_8db0_798bb79af74a o )  ) )):named c39))
(assert (! (exists ((o Int)) (and (and (and (and ( type_01b4b9a2_d50e_452e_92d7_d70cc252904c_Class45 ( obj_3f55ef60_0c95_4393_8db0_798bb79af74a o )  )  ( type_01b4b9a2_d50e_452e_92d7_d70cc252904c_Class12 ( obj_3f55ef60_0c95_4393_8db0_798bb79af74a o )  ) ) ( type_01b4b9a2_d50e_452e_92d7_d70cc252904c_Class33 ( obj_3f55ef60_0c95_4393_8db0_798bb79af74a o )  ) ) ( type_01b4b9a2_d50e_452e_92d7_d70cc252904c_Class22 ( obj_3f55ef60_0c95_4393_8db0_798bb79af74a o )  ) ) ( type_01b4b9a2_d50e_452e_92d7_d70cc252904c_Class39 ( obj_3f55ef60_0c95_4393_8db0_798bb79af74a o )  ) )):named c40))
(assert (! (exists ((o Int)) (and (and ( type_01b4b9a2_d50e_452e_92d7_d70cc252904c_Class46 ( obj_3f55ef60_0c95_4393_8db0_798bb79af74a o )  )  ( type_01b4b9a2_d50e_452e_92d7_d70cc252904c_Class39 ( obj_3f55ef60_0c95_4393_8db0_798bb79af74a o )  ) ) ( type_01b4b9a2_d50e_452e_92d7_d70cc252904c_Class5 ( obj_3f55ef60_0c95_4393_8db0_798bb79af74a o )  ) )):named c41))
(assert (! (exists ((o Int)) ( type_01b4b9a2_d50e_452e_92d7_d70cc252904c_Class47 ( obj_3f55ef60_0c95_4393_8db0_798bb79af74a o )  ) ):named c42))
(assert (! (exists ((o Int)) (and (and (and (and (and (and (and (and (and ( type_01b4b9a2_d50e_452e_92d7_d70cc252904c_Class48 ( obj_3f55ef60_0c95_4393_8db0_798bb79af74a o )  )  ( type_01b4b9a2_d50e_452e_92d7_d70cc252904c_Class45 ( obj_3f55ef60_0c95_4393_8db0_798bb79af74a o )  ) ) ( type_01b4b9a2_d50e_452e_92d7_d70cc252904c_Class12 ( obj_3f55ef60_0c95_4393_8db0_798bb79af74a o )  ) ) ( type_01b4b9a2_d50e_452e_92d7_d70cc252904c_Class55 ( obj_3f55ef60_0c95_4393_8db0_798bb79af74a o )  ) ) ( type_01b4b9a2_d50e_452e_92d7_d70cc252904c_Class33 ( obj_3f55ef60_0c95_4393_8db0_798bb79af74a o )  ) ) ( type_01b4b9a2_d50e_452e_92d7_d70cc252904c_Class22 ( obj_3f55ef60_0c95_4393_8db0_798bb79af74a o )  ) ) ( type_01b4b9a2_d50e_452e_92d7_d70cc252904c_Class29 ( obj_3f55ef60_0c95_4393_8db0_798bb79af74a o )  ) ) ( type_01b4b9a2_d50e_452e_92d7_d70cc252904c_Class39 ( obj_3f55ef60_0c95_4393_8db0_798bb79af74a o )  ) ) ( type_01b4b9a2_d50e_452e_92d7_d70cc252904c_Class50 ( obj_3f55ef60_0c95_4393_8db0_798bb79af74a o )  ) ) ( type_01b4b9a2_d50e_452e_92d7_d70cc252904c_Class41 ( obj_3f55ef60_0c95_4393_8db0_798bb79af74a o )  ) )):named c43))
(assert (! (exists ((o Int)) (and (and (and (and (and (and (and (and (and ( type_01b4b9a2_d50e_452e_92d7_d70cc252904c_Class49 ( obj_3f55ef60_0c95_4393_8db0_798bb79af74a o )  )  ( type_01b4b9a2_d50e_452e_92d7_d70cc252904c_Class45 ( obj_3f55ef60_0c95_4393_8db0_798bb79af74a o )  ) ) ( type_01b4b9a2_d50e_452e_92d7_d70cc252904c_Class12 ( obj_3f55ef60_0c95_4393_8db0_798bb79af74a o )  ) ) ( type_01b4b9a2_d50e_452e_92d7_d70cc252904c_Class55 ( obj_3f55ef60_0c95_4393_8db0_798bb79af74a o )  ) ) ( type_01b4b9a2_d50e_452e_92d7_d70cc252904c_Class33 ( obj_3f55ef60_0c95_4393_8db0_798bb79af74a o )  ) ) ( type_01b4b9a2_d50e_452e_92d7_d70cc252904c_Class22 ( obj_3f55ef60_0c95_4393_8db0_798bb79af74a o )  ) ) ( type_01b4b9a2_d50e_452e_92d7_d70cc252904c_Class29 ( obj_3f55ef60_0c95_4393_8db0_798bb79af74a o )  ) ) ( type_01b4b9a2_d50e_452e_92d7_d70cc252904c_Class39 ( obj_3f55ef60_0c95_4393_8db0_798bb79af74a o )  ) ) ( type_01b4b9a2_d50e_452e_92d7_d70cc252904c_Class50 ( obj_3f55ef60_0c95_4393_8db0_798bb79af74a o )  ) ) ( type_01b4b9a2_d50e_452e_92d7_d70cc252904c_Class41 ( obj_3f55ef60_0c95_4393_8db0_798bb79af74a o )  ) )):named c44))
(assert (! (exists ((o Int)) (and ( type_01b4b9a2_d50e_452e_92d7_d70cc252904c_Class5 ( obj_3f55ef60_0c95_4393_8db0_798bb79af74a o )  )  ( type_01b4b9a2_d50e_452e_92d7_d70cc252904c_Class39 ( obj_3f55ef60_0c95_4393_8db0_798bb79af74a o )  ) )):named c45))
(assert (! (exists ((o Int)) (and (and (and (and (and (and (and (and ( type_01b4b9a2_d50e_452e_92d7_d70cc252904c_Class50 ( obj_3f55ef60_0c95_4393_8db0_798bb79af74a o )  )  ( type_01b4b9a2_d50e_452e_92d7_d70cc252904c_Class45 ( obj_3f55ef60_0c95_4393_8db0_798bb79af74a o )  ) ) ( type_01b4b9a2_d50e_452e_92d7_d70cc252904c_Class12 ( obj_3f55ef60_0c95_4393_8db0_798bb79af74a o )  ) ) ( type_01b4b9a2_d50e_452e_92d7_d70cc252904c_Class55 ( obj_3f55ef60_0c95_4393_8db0_798bb79af74a o )  ) ) ( type_01b4b9a2_d50e_452e_92d7_d70cc252904c_Class33 ( obj_3f55ef60_0c95_4393_8db0_798bb79af74a o )  ) ) ( type_01b4b9a2_d50e_452e_92d7_d70cc252904c_Class22 ( obj_3f55ef60_0c95_4393_8db0_798bb79af74a o )  ) ) ( type_01b4b9a2_d50e_452e_92d7_d70cc252904c_Class29 ( obj_3f55ef60_0c95_4393_8db0_798bb79af74a o )  ) ) ( type_01b4b9a2_d50e_452e_92d7_d70cc252904c_Class39 ( obj_3f55ef60_0c95_4393_8db0_798bb79af74a o )  ) ) ( type_01b4b9a2_d50e_452e_92d7_d70cc252904c_Class41 ( obj_3f55ef60_0c95_4393_8db0_798bb79af74a o )  ) )):named c46))
(assert (! (exists ((o Int)) (and (and (and (and (and (and ( type_01b4b9a2_d50e_452e_92d7_d70cc252904c_Class51 ( obj_3f55ef60_0c95_4393_8db0_798bb79af74a o )  )  ( type_01b4b9a2_d50e_452e_92d7_d70cc252904c_Class45 ( obj_3f55ef60_0c95_4393_8db0_798bb79af74a o )  ) ) ( type_01b4b9a2_d50e_452e_92d7_d70cc252904c_Class12 ( obj_3f55ef60_0c95_4393_8db0_798bb79af74a o )  ) ) ( type_01b4b9a2_d50e_452e_92d7_d70cc252904c_Class33 ( obj_3f55ef60_0c95_4393_8db0_798bb79af74a o )  ) ) ( type_01b4b9a2_d50e_452e_92d7_d70cc252904c_Class22 ( obj_3f55ef60_0c95_4393_8db0_798bb79af74a o )  ) ) ( type_01b4b9a2_d50e_452e_92d7_d70cc252904c_Class16 ( obj_3f55ef60_0c95_4393_8db0_798bb79af74a o )  ) ) ( type_01b4b9a2_d50e_452e_92d7_d70cc252904c_Class39 ( obj_3f55ef60_0c95_4393_8db0_798bb79af74a o )  ) )):named c47))
(assert (! (exists ((o Int)) (and (and (and (and (and ( type_01b4b9a2_d50e_452e_92d7_d70cc252904c_Class52 ( obj_3f55ef60_0c95_4393_8db0_798bb79af74a o )  )  ( type_01b4b9a2_d50e_452e_92d7_d70cc252904c_Class45 ( obj_3f55ef60_0c95_4393_8db0_798bb79af74a o )  ) ) ( type_01b4b9a2_d50e_452e_92d7_d70cc252904c_Class12 ( obj_3f55ef60_0c95_4393_8db0_798bb79af74a o )  ) ) ( type_01b4b9a2_d50e_452e_92d7_d70cc252904c_Class33 ( obj_3f55ef60_0c95_4393_8db0_798bb79af74a o )  ) ) ( type_01b4b9a2_d50e_452e_92d7_d70cc252904c_Class22 ( obj_3f55ef60_0c95_4393_8db0_798bb79af74a o )  ) ) ( type_01b4b9a2_d50e_452e_92d7_d70cc252904c_Class39 ( obj_3f55ef60_0c95_4393_8db0_798bb79af74a o )  ) )):named c48))
(assert (! (exists ((o Int)) ( type_01b4b9a2_d50e_452e_92d7_d70cc252904c_Class53 ( obj_3f55ef60_0c95_4393_8db0_798bb79af74a o )  ) ):named c49))
(assert (! (exists ((o Int)) ( type_01b4b9a2_d50e_452e_92d7_d70cc252904c_Class54 ( obj_3f55ef60_0c95_4393_8db0_798bb79af74a o )  ) ):named c50))
(assert (! (exists ((o Int)) (and (and (and (and (and (and (and ( type_01b4b9a2_d50e_452e_92d7_d70cc252904c_Class55 ( obj_3f55ef60_0c95_4393_8db0_798bb79af74a o )  )  ( type_01b4b9a2_d50e_452e_92d7_d70cc252904c_Class45 ( obj_3f55ef60_0c95_4393_8db0_798bb79af74a o )  ) ) ( type_01b4b9a2_d50e_452e_92d7_d70cc252904c_Class12 ( obj_3f55ef60_0c95_4393_8db0_798bb79af74a o )  ) ) ( type_01b4b9a2_d50e_452e_92d7_d70cc252904c_Class33 ( obj_3f55ef60_0c95_4393_8db0_798bb79af74a o )  ) ) ( type_01b4b9a2_d50e_452e_92d7_d70cc252904c_Class22 ( obj_3f55ef60_0c95_4393_8db0_798bb79af74a o )  ) ) ( type_01b4b9a2_d50e_452e_92d7_d70cc252904c_Class29 ( obj_3f55ef60_0c95_4393_8db0_798bb79af74a o )  ) ) ( type_01b4b9a2_d50e_452e_92d7_d70cc252904c_Class39 ( obj_3f55ef60_0c95_4393_8db0_798bb79af74a o )  ) ) ( type_01b4b9a2_d50e_452e_92d7_d70cc252904c_Class41 ( obj_3f55ef60_0c95_4393_8db0_798bb79af74a o )  ) )):named c51))
(assert (! (exists ((o Int)) ( type_01b4b9a2_d50e_452e_92d7_d70cc252904c_Class6 ( obj_3f55ef60_0c95_4393_8db0_798bb79af74a o )  ) ):named c52))
(assert (! (exists ((o Int)) (and (and (and (and (and (and (and (and (and ( type_01b4b9a2_d50e_452e_92d7_d70cc252904c_Class7 ( obj_3f55ef60_0c95_4393_8db0_798bb79af74a o )  )  ( type_01b4b9a2_d50e_452e_92d7_d70cc252904c_Class45 ( obj_3f55ef60_0c95_4393_8db0_798bb79af74a o )  ) ) ( type_01b4b9a2_d50e_452e_92d7_d70cc252904c_Class12 ( obj_3f55ef60_0c95_4393_8db0_798bb79af74a o )  ) ) ( type_01b4b9a2_d50e_452e_92d7_d70cc252904c_Class55 ( obj_3f55ef60_0c95_4393_8db0_798bb79af74a o )  ) ) ( type_01b4b9a2_d50e_452e_92d7_d70cc252904c_Class33 ( obj_3f55ef60_0c95_4393_8db0_798bb79af74a o )  ) ) ( type_01b4b9a2_d50e_452e_92d7_d70cc252904c_Class22 ( obj_3f55ef60_0c95_4393_8db0_798bb79af74a o )  ) ) ( type_01b4b9a2_d50e_452e_92d7_d70cc252904c_Class29 ( obj_3f55ef60_0c95_4393_8db0_798bb79af74a o )  ) ) ( type_01b4b9a2_d50e_452e_92d7_d70cc252904c_Class39 ( obj_3f55ef60_0c95_4393_8db0_798bb79af74a o )  ) ) ( type_01b4b9a2_d50e_452e_92d7_d70cc252904c_Class50 ( obj_3f55ef60_0c95_4393_8db0_798bb79af74a o )  ) ) ( type_01b4b9a2_d50e_452e_92d7_d70cc252904c_Class41 ( obj_3f55ef60_0c95_4393_8db0_798bb79af74a o )  ) )):named c53))
(assert (! (exists ((o Int)) (and ( type_01b4b9a2_d50e_452e_92d7_d70cc252904c_Class8 ( obj_3f55ef60_0c95_4393_8db0_798bb79af74a o )  )  ( type_01b4b9a2_d50e_452e_92d7_d70cc252904c_Class39 ( obj_3f55ef60_0c95_4393_8db0_798bb79af74a o )  ) )):named c54))
(assert (! (exists ((o Int)) ( type_01b4b9a2_d50e_452e_92d7_d70cc252904c_Class9 ( obj_3f55ef60_0c95_4393_8db0_798bb79af74a o )  ) ):named c55))

 ;end of formula 